 vasp.5.4.4.18Apr17-6-g9f103f2a35 (build Mar 30 2018 13:38:46) complex
 executed on             LinuxGNU date 2018.04.26  13:14:44

 INCAR:
 POTCAR:    PAW_PBE Ti_sv 26Sep2005
 POTCAR:    PAW_PBE O 08Apr2002
 POTCAR:    PAW_PBE Sr_sv 07Sep2000
 POTCAR:    PAW_PBE V_sv 02Aug2007

 POTCAR:    PAW_PBE Ti_sv 26Sep2005
   VRHFIN =Ti: 3p4s3d

   TITEL  = PAW_PBE Ti_sv 26Sep2005
   POMASS =   47.880; ZVAL   =   12.000    mass and valenz
   ENMAX  =  274.610; ENMIN  =  205.957 eV

 POTCAR:    PAW_PBE O 08Apr2002
   VRHFIN =O: s2p4

   TITEL  = PAW_PBE O 08Apr2002
   POMASS =   16.000; ZVAL   =    6.000    mass and valenz
   ENMAX  =  400.000; ENMIN  =  300.000 eV

 POTCAR:    PAW_PBE Sr_sv 07Sep2000
   VRHFIN =Sr: 4s4p5s

   TITEL  = PAW_PBE Sr_sv 07Sep2000
   POMASS =   87.620; ZVAL   =   10.000    mass and valenz
   ENMAX  =  229.353; ENMIN  =  172.014 eV

 POTCAR:    PAW_PBE V_sv 02Aug2007
   VRHFIN =V: p6 d4 s1

   TITEL  = PAW_PBE V_sv 02Aug2007
   POMASS =   50.941; ZVAL   =   13.000    mass and valenz
   ENMAX  =  263.673; ENMIN  =  197.755 eV

 Optimization of the real space projectors (new method)

 maximal supplied QI-value         = 16.25
 optimisation between [QCUT,QGAM] = [ 10.24, 20.48] = [ 29.35,117.42] Ry
 Optimized for a Real-space Cutoff    1.34 Angstroem

   l    n(q)    QCUT    max X(q) W(low)/X(q) W(high)/X(q)  e(spline)
   0      8    10.239    12.277    0.25E-04    0.71E-04    0.16E-07
   0      8    10.239    11.419    0.53E-04    0.11E-03    0.30E-07
   1      8    10.239     4.010    0.22E-04    0.72E-04    0.29E-07
   1      8    10.239     6.182    0.36E-03    0.20E-04    0.85E-07
   2      7    10.239    47.177    0.44E-03    0.46E-03    0.68E-07
   2      7    10.239    42.437    0.43E-03    0.44E-03    0.66E-07
 Optimization of the real space projectors (new method)

[...]

   l    n(q)    QCUT    max X(q) W(low)/X(q) W(high)/X(q)  e(spline)
   0     10    10.129    11.565    0.27E-04    0.92E-05    0.33E-07
   0     10    10.129    10.214    0.43E-04    0.16E-04    0.67E-07
   1      9    10.129   189.983    0.42E-03    0.33E-03    0.23E-06
   1      9    10.129   193.105    0.42E-03    0.33E-03    0.23E-06
   2      9    10.129   115.941    0.73E-04    0.52E-03    0.39E-06
   2      9    10.129    76.444    0.71E-04    0.51E-03    0.38E-06
 Optimization of the real space projectors (new method)

 maximal supplied QI-value         = 16.25
 optimisation between [QCUT,QGAM] = [ 10.24, 20.48] = [ 29.35,117.42] Ry
 Optimized for a Real-space Cutoff    1.34 Angstroem

   l    n(q)    QCUT    max X(q) W(low)/X(q) W(high)/X(q)  e(spline)
   0      8    10.239     2.784    0.54E-04    0.68E-04    0.35E-07
   0      8    10.239    21.205    0.30E-04    0.76E-04    0.23E-07
   1      8    10.239     3.152    0.20E-03    0.14E-03    0.61E-07
   1      8    10.239     5.587    0.45E-03    0.67E-03    0.23E-06
   2      7    10.239    55.619    0.48E-03    0.39E-03    0.71E-07
   2      7    10.239    52.293    0.47E-03    0.37E-03    0.69E-07

  PAW_PBE Ti_sv 26Sep2005               :
  PAW_PBE O 08Apr2002                   :
  PAW_PBE Sr_sv 07Sep2000               :
  PAW_PBE V_sv 02Aug2007                :

 POSCAR: Ti  O Sr  V
  positions in cartesian coordinates
 exchange correlation table for  LEXCH =       14
   RHO(1)=    0.500       N(1)  =     2000
   RHO(2)=  100.500       N(2)  =     4000

 ion  position               nearest neighbor table
   1  0.500  0.000  0.250-   4 1.95   5 1.95   7 1.95  10 1.95  12 1.95  13 1.95  16 3.38  17 3.38
                            18 3.38  19 3.38  18 3.38  19 3.38  16 3.38  17 3.38
   2  0.500  0.000  0.750-   4 1.95   5 1.95   9 1.95  11 1.95  14 1.95  15 1.95  16 3.38  17 3.38
                            18 3.38  19 3.38  18 3.38  19 3.38  16 3.38  17 3.38
   3  0.000  0.500  0.250-   6 1.95   7 1.95   8 1.95  10 1.95  12 1.95  13 1.95  16 3.38  17 3.38
                            18 3.38  19 3.38  16 3.38  17 3.38  18 3.38  19 3.38
   4  0.500  0.000  0.000-   1 1.95   2 1.95  16 2.76  18 2.76  18 2.76  16 2.76
   5  0.500  0.000  0.500-   1 1.95   2 1.95  17 2.76  19 2.76  19 2.76  17 2.76
   6  0.000  0.500  0.000-   3 1.95  20 1.95  18 2.76  16 2.76  16 2.76  18 2.76
   7  0.250  0.250  0.250-   1 1.95   3 1.95  16 2.76  17 2.76  18 2.76  19 2.76
   8  0.000  0.500  0.500-   3 1.95  20 1.95  19 2.76  17 2.76  17 2.76  19 2.76
   9  0.250  0.250  0.750-   2 1.95  20 1.95  17 2.76  18 2.76  19 2.76  16 2.76
  10  0.750  0.250  0.250-   1 1.95   3 1.95  16 2.76  17 2.76  18 2.76  19 2.76
  11  0.750  0.250  0.750-   2 1.95  20 1.95  17 2.76  18 2.76  19 2.76  16 2.76
  12  0.250  0.750  0.250-   1 1.95   3 1.95  16 2.76  17 2.76  18 2.76  19 2.76
  13  0.750  0.750  0.250-   1 1.95   3 1.95  16 2.76  17 2.76  18 2.76  19 2.76
  14  0.250  0.750  0.750-   2 1.95  20 1.95  17 2.76  18 2.76  19 2.76  16 2.76
  15  0.750  0.750  0.750-   2 1.95  20 1.95  17 2.76  18 2.76  19 2.76  16 2.76
  16  0.000  0.000  0.000-   4 2.76   6 2.76   7 2.76   9 2.76  10 2.76  11 2.76  12 2.76  13 2.76
                            14 2.76  15 2.76   6 2.76   4 2.76   1 3.38  20 3.38   3 3.38   2 3.38
  17  0.000  0.000  0.500-   5 2.76   7 2.76   8 2.76   9 2.76  10 2.76  11 2.76  12 2.76  13 2.76
                            14 2.76  15 2.76   8 2.76   5 2.76   1 3.38  20 3.38   3 3.38   2 3.38
  18  0.500  0.500  0.000-   4 2.76   6 2.76   7 2.76   9 2.76  10 2.76  11 2.76  12 2.76  13 2.76
                            14 2.76  15 2.76   4 2.76   6 2.76   1 3.38  20 3.38   1 3.38   2 3.38
  19  0.500  0.500  0.500-   5 2.76   7 2.76   8 2.76   9 2.76  10 2.76  11 2.76  12 2.76  13 2.76
                            14 2.76  15 2.76   5 2.76   8 2.76   1 3.38  20 3.38   1 3.38   2 3.38
  20  0.000  0.500  0.750-   6 1.95   8 1.95   9 1.95  11 1.95  14 1.95  15 1.95  16 3.38  17 3.38
                            18 3.38  19 3.38  16 3.38  17 3.38  18 3.38  19 3.38

  LATTYP: Found a simple tetragonal cell.
 ALAT       =     5.5154328933
 C/A-ratio  =     1.4142135624

  Lattice vectors:

 A1 = (   3.9000000000,  -3.9000000000,   0.0000000000)
 A2 = (   3.9000000000,   3.9000000000,   0.0000000000)
 A3 = (   0.0000000000,   0.0000000000,   7.8000000000)

Analysis of symmetry for initial positions (statically):
 Subroutine PRICEL returns:
 Original cell was already a primitive cell.

 Routine SETGRP: Setting up the symmetry group for a
 simple tetragonal supercell.

 Subroutine GETGRP returns: Found 16 space group operations
 (whereof  4 operations were pure point group operations)
 out of a pool of 16 trial point group operations.

The static configuration has the point symmetry C_2v.
 The point group associated with its full space group is D_4h.

Analysis of symmetry for dynamics (positions and initial velocities):
 Subroutine PRICEL returns:
 Original cell was already a primitive cell.

 Routine SETGRP: Setting up the symmetry group for a
 simple tetragonal supercell.

 Subroutine GETGRP returns: Found 16 space group operations
 (whereof  4 operations were pure point group operations)
 out of a pool of 16 trial point group operations.

The dynamic configuration has the point symmetry C_2v.
 The point group associated with its full space group is D_4h.

 Subroutine INISYM returns: Found 16 space group operations
 (whereof  4 operations are pure point group operations),
 and found     1 'primitive' translations

 KPOINTS: KPOINTS created by Atomic Simulation Env

Automatic generation of k-mesh.
Space group operators:
 irot       det(A)        alpha          n_x          n_y          n_z        tau_x        tau_y        tau_z
    1     1.000000     0.000000     1.000000     0.000000     0.000000     0.000000     0.000000     0.000000
    2     1.000000   180.000000     0.000000     0.000000     1.000000     0.000000     0.000000     0.000000
    3    -1.000000   180.000000     0.707107     0.707107     0.000000     0.000000     0.000000     0.000000
    4    -1.000000   180.000000     0.707107    -0.707107     0.000000     0.000000     0.000000     0.000000
    5    -1.000000     0.000000     1.000000     0.000000     0.000000     0.000000     0.000000     0.500000
    6     1.000000    90.000000     0.000000     0.000000    -1.000000     0.500000     0.500000     0.000000
    7    -1.000000    90.000000     0.000000     0.000000    -1.000000     0.500000     0.500000     0.500000
    8    -1.000000   180.000000     0.000000     0.000000     1.000000     0.000000     0.000000     0.500000
    9     1.000000    90.000000     0.000000     0.000000     1.000000     0.500000     0.500000     0.000000
   10    -1.000000    90.000000     0.000000     0.000000     1.000000     0.500000     0.500000     0.500000
   11     1.000000   180.000000     0.707107     0.707107     0.000000     0.000000     0.000000     0.500000
   12     1.000000   180.000000     1.000000     0.000000     0.000000     0.500000     0.500000     0.500000
   13    -1.000000   180.000000     1.000000     0.000000     0.000000     0.500000     0.500000     0.000000
   14     1.000000   180.000000     0.707107    -0.707107     0.000000     0.000000     0.000000     0.500000
   15     1.000000   180.000000    -0.000000     1.000000     0.000000     0.500000     0.500000     0.500000
   16    -1.000000   180.000000    -0.000000     1.000000     0.000000     0.500000     0.500000     0.000000

 Subroutine IBZKPT returns following result:

 Found     30 irreducible k-points:

 Following reciprocal coordinates:
            Coordinates               Weight
  0.000000  0.000000  0.000000      1.000000
  0.166667  0.000000  0.000000      4.000000
  0.333333  0.000000  0.000000      4.000000
  0.500000  0.000000  0.000000      2.000000
  0.166667  0.166667  0.000000      4.000000
  0.333333  0.166667  0.000000      8.000000
  0.500000  0.166667  0.000000      4.000000
  0.333333  0.333333  0.000000      4.000000
  0.500000  0.333333  0.000000      4.000000
  0.500000  0.500000  0.000000      1.000000
  0.000000  0.000000  0.250000      2.000000
  0.166667  0.000000  0.250000      8.000000
  0.333333  0.000000  0.250000      8.000000
  0.500000  0.000000  0.250000      4.000000
  0.166667  0.166667  0.250000      8.000000
  0.333333  0.166667  0.250000     16.000000
  0.500000  0.166667  0.250000      8.000000
  0.333333  0.333333  0.250000      8.000000
  0.500000  0.333333  0.250000      8.000000
  0.500000  0.500000  0.250000      2.000000
  0.000000  0.000000  0.500000      1.000000
  0.166667  0.000000  0.500000      4.000000
  0.333333  0.000000  0.500000      4.000000
  0.500000  0.000000  0.500000      2.000000
  0.166667  0.166667  0.500000      4.000000
  0.333333  0.166667  0.500000      8.000000
  0.500000  0.166667  0.500000      4.000000
  0.333333  0.333333  0.500000      4.000000
  0.500000  0.333333  0.500000      4.000000
  0.500000  0.500000  0.500000      1.000000

 Following cartesian coordinates:
            Coordinates               Weight
  0.000000  0.000000  0.000000      1.000000
  0.021368 -0.021368  0.000000      4.000000
  0.042735 -0.042735  0.000000      4.000000
  0.064103 -0.064103  0.000000      2.000000
  0.042735  0.000000  0.000000      4.000000
[...]
 Maximum number of reciprocal cells 3x 3x 3

--------------------------------------- Iteration      1(   1)  ---------------------------------------

 BZINTS: Fermi energy:  5.672468;161.000000 electrons
         Band energy:***********;  BLOECHL correction: -0.043973

 eigenvalue-minimisations  :  9424
 total energy-change (2. order) :-0.1672312E+03  (-0.1520902E-03)
 number of electron     160.9999976 magnetization
 augmentation part       24.9714030 magnetization

 Free energy of the ion-electron system (eV)
  alpha Z        PSCENC =       929.81918075
  Ewald energy   TEWEN  =    -11745.00517519
  -Hartree energ DENC   =     -3592.83650534
  -exchange      EXHF   =         0.00000000
  -V(xc)+E(xc)   XCENC  =       746.66379182
  PAW double counting   =     20653.49578776   -20584.13447741
  entropy T*S    EENTRO =         0.00000000
  eigenvalues    EBANDS =     -1819.15998243
  atomic energy  EATOM  =     15243.92616255
  Solvation  Ediel_sol  =         0.00000000
  free energy    TOTEN  =      -167.23121748 eV

  energy without entropy =     -167.23121748  energy(sigma->0) =     -167.23121748

[...]

--------------------------------------- Iteration      1(   6)  ---------------------------------------

[...]

 eigenvalue-minimisations  :  4272
 total energy-change (2. order) :-0.2291927E-09  (-0.4385829E-09)
 number of electron     160.9999976 magnetization
 augmentation part       24.9714030 magnetization

 Free energy of the ion-electron system (eV)
  alpha Z        PSCENC =       929.81918075
  Ewald energy   TEWEN  =    -11745.00517519
  -Hartree energ DENC   =     -3592.83650534
  -exchange      EXHF   =         0.00000000
  -V(xc)+E(xc)   XCENC  =       746.66379182
  PAW double counting   =     20653.49578776   -20584.13447741
  entropy T*S    EENTRO =         0.00000000
  eigenvalues    EBANDS =     -1819.16000195
  atomic energy  EATOM  =     15243.92616255
  Solvation  Ediel_sol  =         0.00000000
  free energy    TOTEN  =      -167.23123700 eV

  energy without entropy =     -167.23123700  energy(sigma->0) =     -167.23123700

 average (electrostatic) potential at core
  the test charge radii are     1.0397  0.7215  1.1929  0.9956
  (the norm of the test charge is              1.0000)
       1 -76.0890       2 -75.9982       3 -76.1455       4 -69.5547       5 -69.5547
       6 -69.8579       7 -69.5562       8 -69.8579       9 -69.8036      10 -69.5562
      11 -69.8036      12 -69.5562      13 -69.5562      14 -69.8036      15 -69.8036
      16 -34.3344      17 -34.3344      18 -34.3344      19 -34.3344      20 -76.6297

 E-fermi :   5.6725     XC(G=0): -11.5679     alpha+bet :-14.0880

 k-point     1 :       0.0000    0.0000    0.0000
  band No.  band energies     occupation
      1     -60.2120      2.00000
      2     -52.0547      2.00000
      3     -51.9965      2.00000
      4     -51.9181      2.00000
      5     -34.2184      2.00000
      6     -34.1054      2.00000
      7     -34.1054      2.00000
      8     -28.6557      2.00000
      9     -28.6299      2.00000
     10     -28.5847      2.00000
     11     -28.5654      2.00000
     12     -28.4874      2.00000
     13     -28.4874      2.00000
     14     -28.4701      2.00000
     15     -28.4007      2.00000
     16     -28.4007      2.00000
     17     -28.3871      2.00000
     18     -28.3492      2.00000
     19     -28.3492      2.00000
     20     -28.3207      2.00000
     21     -13.6746      2.00000
     22     -13.4132      2.00000
     23     -12.7742      2.00000
     24     -12.5905      2.00000
     25     -12.5905      2.00000
     26     -12.4392      2.00000
     27     -12.3778      2.00000
     28     -12.2857      2.00000
     29     -12.2762      2.00000
     30     -12.0453      2.00000
     31     -12.0453      2.00000
     32     -11.9471      2.00000
     33     -10.9305      2.00000
     34     -10.9305      2.00000
     35     -10.9276      2.00000
     36     -10.6505      2.00000
     37     -10.6505      2.00000
     38     -10.6482      2.00000
     39     -10.5999      2.00000
     40     -10.5999      2.00000
     41     -10.5368      2.00000
     42     -10.2347      2.00000
     43     -10.2347      2.00000
     44     -10.0543      2.00000
     45      -0.9490      2.00000
     46      -0.7600      2.00000
     47      -0.6431      2.00000
     48      -0.4684      2.00000
     49      -0.4004      2.00000
     50      -0.1842      2.00000
     51      -0.1425      2.00000
     52       0.1591      2.00000
     53       0.1591      2.00000
     54       0.1904      2.00000
     55       0.8972      2.00000
     56       0.8972      2.00000
     57       0.9965      2.00000
     58       1.0425      2.00000
     59       1.0425      2.00000
     60       1.1661      2.00000
[...]
    106      11.8625      0.00000
    107      11.8629      0.00000
    108      11.9969      0.00000
    109      12.2344      0.00000
    110      12.2863      0.00000
    111      12.3479      0.00000
    112      12.3479      0.00000
    113      12.3538      0.00000
    114      12.5917      0.00000
    115      13.4338      0.00000
    116      13.4338      0.00000
    117      13.5681      0.00000
    118      13.5681      0.00000
    119      13.7182      0.00000
    120      13.7208      0.00000

[...]

 k-point    30 :       0.5000    0.5000    0.5000
  band No.  band energies     occupation
      1     -60.2122      2.00000
      2     -52.0550      2.00000
      3     -51.9969      2.00000
      4     -51.9184      2.00000
      5     -34.2183      2.00000
      6     -34.1059      2.00000
      7     -34.1059      2.00000
      8     -28.6407      2.00000
      9     -28.6407      2.00000
     10     -28.6087      2.00000
     11     -28.6087      2.00000
     12     -28.4860      2.00000
     13     -28.4476      2.00000
     14     -28.4476      2.00000
     15     -28.4010      2.00000
     16     -28.3942      2.00000
     17     -28.3942      2.00000
     18     -28.3443      2.00000
     19     -28.3351      2.00000
     20     -28.3351      2.00000
     21     -13.4450      2.00000
     22     -13.3532      2.00000
     23     -13.2964      2.00000
     24     -13.2216      2.00000
     25     -12.4711      2.00000
     26     -12.4711      2.00000
     27     -12.4064      2.00000
     28     -12.3788      2.00000
     29     -12.2930      2.00000
     30     -12.2435      2.00000
     31     -12.2435      2.00000
     32     -12.2272      2.00000
     33     -10.5736      2.00000
     34     -10.5734      2.00000
     35     -10.5662      2.00000
     36     -10.5658      2.00000
     37     -10.4158      2.00000
     38     -10.4158      2.00000
     39     -10.3782      2.00000
     40     -10.3782      2.00000
     41     -10.2082      2.00000
     42     -10.1957      2.00000
     43     -10.1551      2.00000
     44     -10.1489      2.00000
     45      -0.6636      2.00000
     46      -0.5986      2.00000
     47      -0.3465      2.00000
     48      -0.3338      2.00000
     49      -0.1540      2.00000
     50      -0.1540      2.00000
     51      -0.0609      2.00000
     52      -0.0609      2.00000
     53       0.2267      2.00000
     54       0.2330      2.00000
     55       0.5917      2.00000
     56       0.6098      2.00000
     57       0.9667      2.00000
     58       0.9667      2.00000
     59       1.0650      2.00000
     60       1.0650      2.00000
[...]
    106      12.3428      0.00000
    107      12.3698      0.00000
    108      12.3698      0.00000
    109      12.4154      0.00000
    110      12.4437      0.00000
    111      12.4513      0.00000
    112      12.4602      0.00000
    113      12.7203      0.00000
    114      12.7455      0.00000
    115      12.7493      0.00000
    116      12.7581      0.00000
    117      13.4817      0.00000
    118      13.4817      0.00000
    119      13.4873      0.00000
    120      13.4873      0.00000

 soft charge-density along one line, spin component           1
         0         1         2         3         4         5         6         7         8         9
 total charge-density along one line

------------------------ aborting loop because EDIFF is reached ----------------------------------------

 total charge

# of ion       s       p       d       tot
    1        2.231   6.328   1.791  10.350
    2        2.226   6.318   1.805  10.349
    3        2.230   6.324   1.799  10.353
    4        1.586   3.486   0.000   5.072
    5        1.586   3.486   0.000   5.072
    6        1.585   3.470   0.000   5.055
    7        1.584   3.505   0.000   5.089
    8        1.585   3.470   0.000   5.055
    9        1.583   3.484   0.000   5.068
   10        1.587   3.470   0.000   5.057
   11        1.587   3.447   0.000   5.033
   12        1.587   3.470   0.000   5.057
   13        1.584   3.505   0.000   5.089
   14        1.587   3.447   0.000   5.033
   15        1.583   3.484   0.000   5.068
   16        1.997   5.753   0.206   7.956
   17        1.997   5.753   0.206   7.956
   18        1.997   5.754   0.205   7.955
   19        1.997   5.754   0.205   7.955
   20        2.283   6.337   2.862  11.481
tot         35.980  90.044   9.080 135.104

  FORCE on cell =-STRESS in cart. coord.  units (eV):
  Direction    XX          YY          ZZ          XY          YZ          ZX
  Alpha Z   929.81918   929.81918   929.81918
  Ewald   -3914.57848 -3914.57848 -3915.88027     0.00000    -0.00000     0.00000
  Hartree  1198.47066  1198.47066  1196.21416    -0.00000    -0.00000    -0.00000
  E(xc)    -763.23900  -763.23900  -763.25400    -0.00000     0.00000    -0.00000
  Local     -37.33628   -37.33628   -32.00189    -0.00000    -0.00000    -0.00000
  n-local  -622.64133  -618.14735  -620.23064    -0.55098    -0.09931    -0.17492
  augment   345.54145   345.54145   344.55516     0.00000     0.00000     0.00001
  Kinetic  2849.44294  2849.78633  2847.95640    11.71268     0.59916     0.31066
  Fock        0.00000     0.00000     0.00000     0.00000     0.00000     0.00000
  Total     -12.10218   -12.10218   -12.82190    -0.00000     0.00000    -0.00000
  in kB     -81.71848   -81.71848   -86.57831    -0.00000     0.00000    -0.00000

 VOLUME and BASIS-vectors are now :
  energy-cutoff  :      400.00
  volume of cell :      237.28
      direct lattice vectors                 reciprocal lattice vectors
     3.900000000 -3.900000000  0.000000000     0.128205128 -0.128205128  0.000000000
     3.900000000  3.900000000  0.000000000     0.128205128  0.128205128 -0.000000000
     0.000000000  0.000000000  7.800000000    -0.000000000  0.000000000  0.128205128

  length of vectors
     5.515432893  5.515432893  7.800000000     0.181309431  0.181309431  0.128205128

 FORCES acting on ions
    electron-ion (+dipol)            ewald-force                    non-local-force                 convergence-correction
   0.427E-12 -.455E-12 0.662E-11   -.939E-13 0.308E-13 -.534E-14   0.165E-23 0.827E-24 0.000E+00   0.286E-13 0.606E-14 -.377E-13
   0.436E-12 -.470E-12 0.198E-11   -.804E-13 0.354E-13 -.662E-33   -.703E-23 -.414E-24 0.662E-23   0.140E-13 0.174E-13 0.327E-13
   0.460E-12 0.464E-12 -.608E-12   -.887E-13 0.440E-13 -.695E-14   -.827E-24 0.827E-24 0.000E+00   0.521E-14 -.861E-14 -.555E-13
   0.167E-12 -.175E-12 -.385E+01   -.195E-14 0.131E-14 0.432E+01   0.271E-19 -.271E-19 -.325E-01   -.408E-14 0.110E-13 -.434E+00
   0.167E-12 -.177E-12 0.385E+01   -.269E-14 0.184E-14 -.432E+01   0.108E-18 -.542E-19 0.325E-01   -.774E-14 0.109E-13 0.434E+00
   0.175E-12 0.176E-12 -.213E+02   -.272E-15 0.262E-14 0.219E+02   0.163E-18 -.271E-19 -.163E+01   0.345E-14 -.958E-14 -.240E-01
   0.195E-12 0.121E+01 -.306E-12   0.281E-13 -.118E+01 -.211E-14   -.434E-18 0.136E+00 -.542E-19   -.202E-13 -.107E+00 -.259E-13
   0.175E-12 0.182E-12 0.213E+02   -.282E-15 0.245E-14 -.219E+02   0.813E-19 -.542E-19 0.163E+01   0.177E-14 -.131E-13 0.240E-01
   0.581E-12 0.186E+02 -.183E-12   0.244E-13 -.188E+02 -.104E-16   0.000E+00 0.163E+01 0.000E+00   -.232E-13 -.475E+00 0.215E-13
   0.121E+01 0.300E-12 0.108E-11   -.118E+01 -.292E-13 -.215E-14   0.136E+00 0.000E+00 0.136E-19   -.107E+00 -.101E-13 -.237E-13
   0.186E+02 0.153E-12 -.669E-12   -.188E+02 -.149E-13 0.142E-13   0.163E+01 0.000E+00 -.678E-20   -.475E+00 -.877E-14 0.247E-13
   -.121E+01 0.213E-12 -.311E-12   0.118E+01 -.417E-13 -.220E-14   -.136E+00 0.000E+00 -.136E-19   0.107E+00 0.247E-13 -.251E-13
   -.331E-12 -.121E+01 0.156E-11   0.212E-13 0.118E+01 -.163E-13   -.434E-18 -.136E+00 0.542E-19   0.170E-13 0.107E+00 -.252E-13
   -.186E+02 0.338E-12 -.249E-12   0.188E+02 -.433E-13 0.142E-13   -.163E+01 0.000E+00 0.678E-20   0.475E+00 0.261E-13 0.238E-13
   0.139E-11 -.186E+02 -.776E-12   0.260E-13 0.188E+02 0.104E-16   0.000E+00 -.163E+01 0.000E+00   0.189E-13 0.475E+00 0.221E-13
   -.262E-13 -.981E-14 -.107E+02   -.277E-13 0.184E-13 0.112E+02   0.203E-19 -.203E-19 -.125E+00   0.584E-14 -.682E-14 -.301E+00
   -.280E-13 -.228E-14 0.107E+02   -.288E-13 0.166E-13 -.112E+02   -.474E-19 0.000E+00 0.125E+00   0.101E-13 -.509E-14 0.301E+00
   -.259E-12 -.354E-12 -.107E+02   -.247E-13 0.931E-14 0.112E+02   -.212E-19 0.127E-19 -.125E+00   -.254E-14 0.455E-14 -.301E+00
   -.130E-11 -.141E-11 0.107E+02   -.254E-13 0.110E-13 -.112E+02   0.212E-19 -.195E-19 0.125E+00   -.179E-15 0.948E-14 0.301E+00
   0.604E-12 0.635E-12 -.624E-12   0.159E-14 0.289E-13 0.568E-13   0.000E+00 0.000E+00 0.207E-24   0.174E-13 -.142E-13 0.247E-13
   0.707E-12 0.871E-12 0.376E-11   0.616E-14 -.331E-13 -.391E-13   0.222E-15 0.222E-15 0.207E-24   0.318E-13 0.248E-13 -.629E-13

 POSITION                                       TOTAL-FORCE (eV/Angst)
      1.95000     -1.95000      1.95000         0.000000     -0.000000      0.000000
      1.95000     -1.95000      5.85000         0.000000     -0.000000      0.000000
      1.95000      1.95000      1.95000         0.000000     -0.000000      0.000000
      1.95000     -1.95000      0.00000        -0.000000     -0.000000      0.001823
      1.95000     -1.95000      3.90000         0.000000     -0.000000     -0.001823
      1.95000      1.95000      0.00000         0.000000     -0.000000     -1.019079
      1.95000      0.00000      1.95000         0.000000      0.054962      0.000000
      1.95000      1.95000      3.90000         0.000000     -0.000000      1.019079
      1.95000      0.00000      5.85000         0.000000      1.009031      0.000000
      3.90000     -1.95000      1.95000         0.054962     -0.000000      0.000000
      3.90000     -1.95000      5.85000         1.009031     -0.000000     -0.000000
      3.90000      1.95000      1.95000        -0.054962     -0.000000      0.000000
      5.85000      0.00000      1.95000         0.000000     -0.054962      0.000000
      3.90000      1.95000      5.85000        -1.009031     -0.000000      0.000000
      5.85000      0.00000      5.85000         0.000000     -1.009031      0.000000
      0.00000      0.00000      0.00000        -0.000000      0.000000      0.018593
      0.00000      0.00000      3.90000        -0.000000      0.000000     -0.018593
      3.90000      0.00000      0.00000        -0.000000      0.000000      0.018593
      3.90000      0.00000      3.90000         0.000000     -0.000000     -0.018593
      1.95000      1.95000      5.85000         0.000000      0.000000      0.000000
    total drift:                                0.000000      0.000000      0.000000

  FREE ENERGIE OF THE ION-ELECTRON SYSTEM (eV)
  free  energy   TOTEN  =      -167.23123700 eV

  energy  without entropy=     -167.23123700  energy(sigma->0) =     -167.23123700

 writing wavefunctions

 total charge

# of ion       s       p       d       tot
    1        2.231   6.328   1.791  10.350
    2        2.226   6.318   1.805  10.349
    3        2.230   6.324   1.799  10.353
    4        1.586   3.486   0.000   5.072
    5        1.586   3.486   0.000   5.072
    6        1.585   3.470   0.000   5.055
    7        1.584   3.505   0.000   5.089
    8        1.585   3.470   0.000   5.055
    9        1.583   3.484   0.000   5.068
   10        1.587   3.470   0.000   5.057
   11        1.587   3.447   0.000   5.033
   12        1.587   3.470   0.000   5.057
   13        1.584   3.505   0.000   5.089
   14        1.587   3.447   0.000   5.033
   15        1.583   3.484   0.000   5.068
   16        1.997   5.753   0.206   7.956
   17        1.997   5.753   0.206   7.956
   18        1.997   5.754   0.205   7.955
   19        1.997   5.754   0.205   7.955
   20        2.283   6.337   2.862  11.481
tot         35.980  90.044   9.080 135.104

 BZINTS: Fermi energy:  5.672468;161.000000 electrons
         Band energy:***********;  BLOECHL correction: -0.043973